#\#CIF_2.0
data_25-TOPOS_SAYMUB01_C18.03H16.02N2O4.02/Z=1818-foldH-bond						
#_database_code_TOPOS                SAYMUB01						
_audit_creation_date                2020-11-17						
_audit_creation_method              ToposPro						
_chemical_formula_structural        'C18.03 H16.02 N2 O4.02/Z=18  18-fold H-bond'						
_chemical_name_systematic						
;						
bis(Benzene-1,3,5-tricarboxylic acid) tris(1,2-bis(4-pyridyl)ethane).						
 						
;						
_chemical_formula_sum               'C9 H8 N1 O2'						
_citation_journal_abbrev            'CRYST.GROWTH DES.'						
_citation_year                      2005						
_citation_journal_volume            5						
_citation_page_first                2046						
_citation_special_details						
;						
Details: orthorhombic polymorph. 						
;						
loop_						
_publ_author_name						
'Shattock T.R.'						
'Vishweshwar P.'						
'Zhenqiang WANG'						
'Zaworotko M.J.'						
_cell_length_a                      19.27						
_cell_length_b                      19.906						
_cell_length_c                      25.249						
_cell_angle_alpha                   90						
_cell_angle_beta                    90						
_cell_angle_gamma                   90						
_cell_volume                        9685.23						
_cell_formula_units_Z               48						
_symmetry_space_group_name_H-M      'P b c a'						
_symmetry_Int_Tables_number         61						
_refine_ls_R_factor_all             0.0557						
loop_						
_symmetry_equiv_pos_site_id						
_symmetry_equiv_pos_as_xyz						
1 x,y,z						
2 1/2-x,-y,1/2+z						
3 1/2+x,1/2-y,-z						
4 -x,1/2+y,1/2-z						
5 -x,-y,-z						
6 1/2+x,y,1/2-z						
7 1/2-x,1/2+y,z						
8 x,1/2-y,1/2+z						
loop_						
_atom_site_label						
_atom_site_type_symbol						
_atom_site_symmetry_multiplicity						
_atom_site_fract_x						
_atom_site_fract_y						
_atom_site_fract_z						
_atom_site_occupancy						
H1 H 8 0.53660 0.04930 0.41667 1.0000						
H2 H 8 0.62980 0.34130 0.52060 1.0000						
H3 H 8 0.65510 0.38040 0.20930 1.0000						
H4 H 8 0.57660 0.21180 0.44130 1.0000						
H5 H 8 0.64090 0.36540 0.34780 1.0000						
H6 H 8 0.57850 0.18990 0.28180 1.0000						
H7 H 8 0.98650 0.05450 0.63660 1.0000						
H8 H 8 0.82360 0.40930 0.73430 1.0000						
H9 H 8 0.80470 0.31010 0.43110 1.0000						
H10 H 8 0.91980 0.21680 0.67550 1.0000						
H11 H 8 0.81870 0.36970 0.60250 1.0000						
H12 H 8 0.88050 0.20730 0.51800 1.0000						
H13 H 8 0.98480 0.00750 0.44610 1.0000						
H14 H 8 0.95920 0.11990 0.45730 1.0000						
H15 H 8 0.96760 0.14260 0.29820 1.0000						
H16 H 8 0.99300 0.02940 0.29140 1.0000						
H17 H 8 0.90740 0.22460 0.40980 1.0000						
H18 H 8 0.93380 0.23730 0.35050 1.0000						
H19 H 8 0.02260 0.23750 0.44210 1.0000						
H20 H 8 0.05080 0.24710 0.38300 1.0000						
H21 H 8 0.97850 0.33470 0.49010 1.0000						
H22 H 8 0.96020 0.44970 0.49300 1.0000						
H23 H 8 0.99660 0.46530 0.34050 1.0000						
H24 H 8 0.01280 0.35160 0.33290 1.0000						
H25 H 8 0.65050 0.31580 0.63350 1.0000						
H26 H 8 0.67190 0.38810 0.70280 1.0000						
H27 H 8 0.67560 0.54070 0.59750 1.0000						
H28 H 8 0.65430 0.46380 0.53130 1.0000						
H29 H 8 0.70460 0.56610 0.68650 1.0000						
H30 H 8 0.73390 0.50610 0.72200 1.0000						
H31 H 8 0.59300 0.55320 0.72270 1.0000						
H32 H 8 0.61670 0.48710 0.75410 1.0000						
H33 H 8 0.66340 0.49910 0.84130 1.0000						
H34 H 8 0.69750 0.56590 0.91150 1.0000						
H35 H 8 0.68720 0.72760 0.82220 1.0000						
H36 H 8 0.65540 0.66480 0.74960 1.0000						
H37 H 8 0.19530 0.30320 0.36620 1.0000						
H38 H 8 0.20930 0.31310 0.45650 1.0000						
H39 H 8 0.15840 0.50920 0.44360 1.0000						
H40 H 8 0.14570 0.49350 0.35350 1.0000						
H41 H 8 0.16320 0.39230 0.53830 1.0000						
H42 H 8 0.18620 0.46860 0.52880 1.0000						
H43 H 8 0.28120 0.35740 0.52610 1.0000						
H44 H 8 0.30360 0.43420 0.51840 1.0000						
H45 H 8 0.23150 0.32320 0.61620 1.0000						
H46 H 8 0.24650 0.33540 0.70640 1.0000						
H47 H 8 0.34090 0.50830 0.68740 1.0000						
H48 H 8 0.32920 0.50140 0.59620 1.0000						
C1 C 8 0.57302 0.19017 0.36238 1.0000						
C2 C 8 0.58561 0.22953 0.40700 1.0000						
C3 C 8 0.61128 0.29457 0.40182 1.0000						
C4 C 8 0.62411 0.32078 0.35153 1.0000						
C5 C 8 0.61233 0.28146 0.30657 1.0000						
C6 C 8 0.58672 0.21656 0.31237 1.0000						
C7 C 8 0.54799 0.11910 0.36592 1.0000						
C8 C 8 0.62593 0.33825 0.44928 1.0000						
C9 C 8 0.62825 0.30535 0.25176 1.0000						
C10 C 8 0.90601 0.20171 0.59637 1.0000						
C11 C 8 0.90073 0.23607 0.64424 1.0000						
C12 C 8 0.86803 0.29802 0.64692 1.0000						
C13 C 8 0.84045 0.32689 0.60098 1.0000						
C14 C 8 0.84493 0.29268 0.55301 1.0000						
C15 C 8 0.87755 0.23052 0.55086 1.0000						
C16 C 8 0.94109 0.13450 0.59281 1.0000						
C17 C 8 0.86015 0.33050 0.69998 1.0000						
C18 C 8 0.81705 0.32608 0.50410 1.0000						
C19 C 8 0.98134 0.03555 0.41581 1.0000						
C20 C 8 0.96603 0.10243 0.42272 1.0000						
C21 C 8 0.96051 0.14437 0.37890 1.0000						
C22 C 8 0.97093 0.11586 0.32923 1.0000						
C23 C 8 0.98610 0.04837 0.32556 1.0000						
C24 C 8 0.94690 0.21801 0.38519 1.0000						
C25 C 8 0.01076 0.25544 0.40667 1.0000						
C26 C 8 0.99866 0.32969 0.41080 1.0000						
C27 C 8 0.98237 0.36063 0.45870 1.0000						
C28 C 8 0.97187 0.42933 0.46019 1.0000						
C29 C 8 0.99268 0.43823 0.37137 1.0000						
C30 C 8 0.00283 0.37060 0.36660 1.0000						
C31 C 8 0.65607 0.36229 0.62612 1.0000						
C32 C 8 0.66887 0.40513 0.66768 1.0000						
C33 C 8 0.67738 0.47318 0.65827 1.0000						
C34 C 8 0.67107 0.49443 0.60599 1.0000						
C35 C 8 0.65825 0.44823 0.56674 1.0000						
C36 C 8 0.69275 0.52205 0.70220 1.0000						
C37 C 8 0.63241 0.53152 0.74114 1.0000						
C38 C 8 0.65431 0.57422 0.78724 1.0000						
C39 C 8 0.66797 0.54624 0.83635 1.0000						
C40 C 8 0.68822 0.58638 0.87832 1.0000						
C41 C 8 0.68248 0.68039 0.82608 1.0000						
C42 C 8 0.66298 0.64325 0.78268 1.0000						
C43 C 8 0.18787 0.34575 0.38227 1.0000						
C44 C 8 0.19630 0.35118 0.43614 1.0000						
C45 C 8 0.18572 0.41264 0.46048 1.0000						
C46 C 8 0.16643 0.46611 0.42855 1.0000						
C47 C 8 0.15902 0.45635 0.37480 1.0000						
C48 C 8 0.19636 0.42145 0.51907 1.0000						
C49 C 8 0.27041 0.40410 0.53663 1.0000						
C50 C 8 0.27941 0.41114 0.59574 1.0000						
C51 C 8 0.25455 0.36166 0.62979 1.0000						
C52 C 8 0.26382 0.36938 0.68356 1.0000						
C53 C 8 0.31879 0.47000 0.67262 1.0000						
C54 C 8 0.31188 0.46635 0.61809 1.0000						
N1 N 8 0.99148 0.00849 0.36792 1.0000						
N2 N 8 0.97744 0.46819 0.41737 1.0000						
N3 N 8 0.65107 0.38260 0.57586 1.0000						
N4 N 8 0.69516 0.65282 0.87386 1.0000						
N5 N 8 0.16968 0.39743 0.35137 1.0000						
N6 N 8 0.29588 0.42223 0.70526 1.0000						
O1 O 8 0.53765 0.08494 0.32692 1.0000						
O2 O 8 0.54003 0.09775 0.41514 1.0000						
O3 O 8 0.62351 0.30507 0.49458 1.0000						
O4 O 8 0.63865 0.39764 0.44499 1.0000						
O5 O 8 0.64397 0.36953 0.24814 1.0000						
O6 O 8 0.62617 0.26766 0.21413 1.0000						
O7 O 8 0.94697 0.10535 0.55054 1.0000						
O8 O 8 0.96249 0.11151 0.63845 1.0000						
O9 O 8 0.87434 0.30079 0.74060 1.0000						
O10 O 8 0.83523 0.39205 0.69811 1.0000						
O11 O 8 0.80622 0.38605 0.50198 1.0000						
O12 O 8 0.80788 0.28361 0.46409 1.0000						
loop_		
_topol_link.id						
_topol_link.node_id_1						
_topol_link.node_id_2						
_topol_link.distance						
_topol_link.type						
_topol_link.multiplicity						
_topol_link.voronoi_solidangle						
1	1	110	0.9675	v	8	33.97
2	1	121	2.7148	vw	8	9.19
3	1	122	3.2146	vw	8	4.31
4	1	123	3.2434	vw	8	4.6
5	1	124	3.9012	vw	8	1.54
6	1	125	1.6372	hb	8	24.55
7	2	111	0.9831	v	8	32.92
8	2	28	2.4984	vw	8	6.68
9	2	126	2.7595	vw	8	6.47
10	2	127	3.4228	vw	8	5.05
11	2	119	3.5457	vw	8	2.48
12	2	66	3.6449	vw	8	2.51
13	2	105	1.6705	hb	8	24.78
14	3	113	1.0269	v	8	33.86
15	3	128	2.9622	vw	8	5.52
16	3	129	2.9972	vw	8	6.25
17	3	130	3.1277	vw	8	4.76
18	3	131	3.7102	vw	8	1.86
19	3	132	3.8961	vw	8	1.6
20	3	133	1.5939	hb	8	24.15
21	4	50	0.9512	v	8	34.34
22	4	111	2.4645	vw	8	13.37
23	4	110	2.4672	vw	8	10.89
24	4	134	2.7100	vw	8	11.92
25	4	135	2.7259	vw	8	13.37
26	4	126	3.2816	vw	8	4.03
27	4	137	3.6665	vw	8	2.23
28	4	138	3.8308	vw	8	2.34
29	5	52	0.9500	v	8	34.37
30	5	113	2.5184	vw	8	12.55
31	5	112	2.5369	vw	8	10.78
32	5	139	2.6896	vw	8	12.56
33	5	140	3.0597	vw	8	4.67
34	5	141	3.2472	vw	8	6.39
35	5	142	3.3985	vw	8	5.88
36	5	143	3.4859	vw	8	1.55
37	6	54	0.9500	v	8	34.27
38	6	114	2.4818	vw	8	13.23
39	6	109	2.5066	vw	8	13.18
40	6	144	3.0876	vw	8	12.18
41	6	145	3.1030	vw	8	9.11
42	6	146	3.2898	vw	8	4.96
43	6	147	3.6668	vw	8	1.81
44	6	148	3.9789	vw	8	1.63
45	7	116	1.2264	v	8	30.59
46	7	149	2.6596	vw	8	7.65
47	7	150	3.2875	vw	8	1.95
48	7	151	3.3536	vw	8	2.44
49	7	152	3.7078	vw	8	2.34
50	7	153	1.3286	hb	8	28.82
51	8	118	1.0015	v	8	33.52
52	8	30	2.6071	vw	8	9.67
53	8	26	3.0588	vw	8	3.87
54	8	154	3.3720	vw	8	3.35
55	8	155	3.7714	vw	8	3.17
56	8	156	1.6372	hb	8	23.4
57	9	120	0.9877	v	8	33.13
58	9	157	2.5178	vw	8	5.84
59	9	17	2.6650	vw	8	7.85
60	9	158	3.2337	vw	8	5.23
61	9	56	3.5202	vw	8	3.86
62	9	75	3.6358	vw	8	2.54
63	9	51	3.8124	vw	8	1.65
64	9	141	1.6228	hb	8	25.3
65	10	59	0.9514	v	8	34.47
66	10	116	2.4382	vw	8	14.73
67	10	117	2.5029	vw	8	11.8
68	10	160	2.5830	vw	8	15.06
69	10	149	3.4766	vw	8	1.92
70	10	162	3.4928	vw	8	4.47
71	10	163	3.6141	vw	8	2.02
72	10	164	3.7377	vw	8	3.43
73	10	165	4.5672	vw	8	1.97
74	11	61	0.9504	v	8	34.9
75	11	118	2.4753	vw	8	12.41
76	11	119	2.5701	vw	8	9.48
77	11	166	2.7131	vw	8	11.65
78	11	167	3.0200	vw	8	6.69
79	11	79	3.1935	vw	8	5.05
80	11	105	3.3095	vw	8	4.14
81	11	80	3.3973	vw	8	2.68
82	12	63	0.9514	v	8	34.17
83	12	120	2.4736	vw	8	9.8
84	12	115	2.5366	vw	8	10.39
85	12	168	2.5613	vw	8	13.14
86	12	14	2.7705	vw	8	8.51
87	12	17	2.8019	vw	8	8.05
88	12	21	3.2394	vw	8	4.02
89	12	169	3.3959	vw	8	3.32
90	13	67	0.9493	v	8	33.67
91	13	170	2.6043	vw	8	13.05
92	13	171	2.8001	vw	4	12.91
93	13	172	3.2315	vw	8	7.09
94	13	173	3.3646	vw	8	5.45
95	13	174	3.5453	vw	8	4.39
96	14	68	0.9490	v	8	34.1
97	14	115	2.3836	vw	8	16.93
98	14	17	2.6036	vw	8	6.84
99	14	169	2.6683	vw	8	9.72
100	14	176	3.2445	vw	8	5.78
101	14	168	3.4850	vw	8	1.56
102	15	70	0.9494	v	8	34.47
103	15	18	2.3920	vw	8	12.82
104	15	178	2.5719	vw	8	15.19
105	15	179	3.5529	vw	8	1.73
106	15	180	3.6221	vw	8	3.17
107	16	71	0.9509	v	8	33.65
108	16	181	2.5580	vw	8	11.14
109	16	182	2.6664	vw	8	9.96
110	16	183	3.0725	vw	8	7.82
111	16	180	3.2996	vw	8	6.47
112	16	185	3.5720	vw	8	6.05
113	17	72	0.9913	v	8	28.16
114	17	120	2.6337	vw	8	7.89
115	17	21	3.2850	vw	8	2.09
116	17	168	3.3463	vw	8	3.71
117	17	187	3.5529	vw	8	2.87
118	17	158	3.5813	vw	8	1.58
119	17	189	3.6611	vw	8	1.51
120	18	72	0.9891	v	8	28.29
121	18	190	2.5368	vw	8	11.46
122	18	191	2.7734	vw	8	10.06
123	18	178	3.0964	vw	8	6.15
124	19	73	0.9899	v	8	28.24
125	19	193	2.4361	vw	8	11.62
126	19	194	2.6562	vw	8	10.74
127	20	73	0.9900	v	8	28.18
128	20	195	2.3307	vw	8	16.67
129	20	24	2.5423	vw	8	8.37
130	20	196	2.8795	vw	8	8.1
131	20	37	3.0299	vw	8	4.98
132	21	75	0.9490	v	8	34.47
133	21	197	2.9897	vw	8	8.12
134	21	66	3.1359	vw	8	4.93
135	21	62	3.1381	vw	8	5.78
136	21	63	3.2309	vw	8	3.66
137	22	76	0.9494	v	8	33.89
138	22	198	2.5471	vw	4	11.49
139	22	166	2.9078	vw	8	11.48
140	22	200	3.0392	vw	8	2.5
141	22	119	3.2343	vw	8	5.53
142	22	201	3.3025	vw	8	4.86
143	23	77	0.9506	v	8	33.35
144	23	202	2.4950	vw	8	14.3
145	23	203	2.9458	vw	8	11.33
146	23	285	3.1637	vw	8	3.02
147	23	229	3.1813	vw	8	1.79
148	23	282	3.2286	vw	8	3.74
149	23	228	3.2991	vw	8	3.12
150	23	279	3.4588	vw	8	3.69
151	24	78	0.9508	v	8	33.85
152	24	196	2.9958	vw	8	7.33
153	24	107	3.1920	vw	8	2.94
154	24	254	3.2197	vw	8	3.98
155	24	230	3.6183	vw	8	3.51
156	24	278	3.9357	vw	8	3.57
157	25	79	0.9501	v	8	33.93
158	25	291	2.5212	vw	8	14.65
159	25	349	2.6692	vw	8	10.38
160	26	80	0.9511	v	8	33.99
161	26	32	2.5871	vw	8	12.01
162	26	30	2.6795	vw	8	5.66
163	26	310	2.9023	vw	8	11.35
164	26	118	3.1506	vw	8	3.93
165	26	349	3.2360	vw	8	4.91
166	27	82	0.9497	v	8	33.94
167	27	29	2.3702	vw	8	13.26
168	27	213	2.9252	vw	8	6.21
169	27	352	2.9395	vw	8	6.94
170	27	305	2.9956	vw	8	7.05
171	27	236	3.1173	vw	8	4.22
172	27	354	3.1838	vw	8	2.53
173	27	235	3.1855	vw	8	3.55
174	27	238	3.2632	vw	8	2.27
175	27	233	3.3833	vw	8	3.7
176	27	231	3.5060	vw	8	2.18
177	28	83	0.9500	v	8	33.76
178	28	305	2.5210	vw	8	14.81
179	28	112	2.5641	vw	8	12.54
180	28	140	3.3083	vw	8	1.79
181	28	119	3.3932	vw	8	4.95
182	28	352	3.4617	vw	8	3.24
183	28	166	3.7037	vw	8	1.52
184	29	84	0.9890	v	8	28.18
185	29	36	2.7014	vw	8	10.77
186	29	325	2.7038	vw	8	8.45
187	30	84	0.9897	v	8	28.11
188	30	156	2.7544	vw	8	7.24
189	30	167	3.0028	vw	8	6.81
190	30	313	3.0800	vw	8	6.38
191	30	33	3.3073	vw	8	1.5
192	31	85	0.9898	v	8	28.24
193	31	36	2.6158	vw	8	8.18
194	31	354	2.6487	vw	8	10.61
195	32	85	0.9902	v	8	28.35
196	32	33	2.3905	vw	8	12
197	32	332	2.7852	vw	8	10.61
198	33	87	0.9507	v	8	33.68
199	33	332	2.9669	vw	8	6.89
200	33	248	3.0701	vw	8	3.78
201	33	250	3.1085	vw	8	3.18
202	33	156	3.2001	vw	8	3.15
203	33	243	3.2543	vw	8	2.88
204	33	246	3.2873	vw	8	4.08
205	33	245	3.3321	vw	8	3.47
206	33	302	3.3644	vw	8	2.58
207	33	320	3.3880	vw	8	1.7
208	33	299	3.7096	vw	8	1.55
209	34	88	0.9487	v	8	33.84
210	34	302	2.4639	vw	8	15.09
211	34	335	2.4777	vw	8	13.29
212	34	315	2.8508	vw	8	8.49
213	34	341	3.3483	vw	8	4.53
214	34	320	3.4419	vw	8	2.73
215	34	219	3.4889	vw	8	3.1
216	35	89	0.9492	v	8	33.56
217	35	309	2.5997	vw	8	12.68
218	35	357	2.7882	vw	8	8.59
219	35	307	2.9146	vw	8	7.91
220	35	239	3.8873	vw	8	1.67
221	35	253	4.0300	vw	8	1.74
222	36	90	0.9502	v	8	34.32
223	36	357	2.7763	vw	8	10.19
224	36	292	4.1511	vw	8	3.03
225	37	91	0.9500	v	8	33.9
226	37	196	2.5276	vw	8	12.49
227	37	209	3.9008	vw	8	2.27
228	37	208	3.9049	vw	8	3.69
229	37	207	4.0437	vw	8	2.29
230	38	92	0.9495	v	8	34.49
231	38	43	2.4053	vw	8	13.56
232	38	41	2.7460	vw	8	5.8
233	38	194	3.1292	vw	8	10.04
234	38	211	3.3616	vw	8	3.99
235	38	210	3.3649	vw	8	5.18
236	38	337	3.3667	vw	8	4.3
237	39	94	0.9508	v	8	34.33
238	39	42	2.3596	vw	8	12.15
239	39	336	2.5886	vw	8	12.12
240	39	319	3.6421	vw	8	2.33
241	39	227	3.6427	vw	8	1.62
242	40	95	0.9497	v	8	33.51
243	40	334	2.6502	vw	8	12.84
244	40	224	3.4859	vw	8	2.3
245	41	96	0.9903	v	8	28.15
246	41	339	2.6561	vw	8	10.29
247	41	45	2.7373	vw	8	8.67
248	42	96	0.9897	v	8	28.24
249	42	336	2.9995	vw	8	5.35
250	43	97	0.9890	v	8	28.23
251	43	45	2.5605	vw	8	8.74
252	43	337	2.8644	vw	8	8.36
253	44	97	0.9899	v	8	28.28
254	44	48	2.4272	vw	8	11.71
255	44	350	3.3589	vw	8	4.49
256	45	99	0.9493	v	8	34.06
257	45	215	3.0575	vw	8	5.38
258	45	205	3.1128	vw	8	5.63
259	45	337	3.2858	vw	8	3.59
260	45	220	3.3271	vw	8	4.14
261	46	100	0.9495	v	8	33.73
262	46	356	2.8869	vw	8	7.07
263	46	252	3.2824	vw	8	3.58
264	46	241	3.4933	vw	8	2.99
265	46	347	3.6894	vw	8	3.92
266	47	101	0.9498	v	8	33.58
267	47	346	2.9408	vw	8	10.75
268	47	216	3.0345	vw	8	3.68
269	47	317	3.2377	vw	8	3.31
270	48	102	0.9506	v	8	33.73
271	48	343	2.3461	vw	8	16.66
272	48	214	3.0378	vw	8	5.06
273	48	317	3.2617	vw	8	3.13
274	49	54	1.3929	v	8	27.8
275	49	50	1.3936	v	8	27.6
276	49	55	1.4974	v	8	27.17
277	49	207	3.6341	vw	8	3.3
278	50	51	1.3921	v	8	27.96
279	50	138	3.7227	vw	8	2.87
280	51	52	1.3949	v	8	28.06
281	51	56	1.5072	v	8	26.69
282	51	143	3.5707	vw	8	2.05
283	51	212	3.5732	vw	8	3.54
284	52	53	1.3974	v	8	28.24
285	52	143	3.4030	vw	8	4.44
286	53	54	1.3907	v	8	27.91
287	53	57	1.4951	v	8	27.49
288	55	109	1.2132	v	8	31.1
289	55	110	1.3223	v	8	27.66
290	55	208	3.8539	vw	8	4.15
291	56	112	1.2122	v	8	30.33
292	56	111	1.3216	v	8	26.19
293	56	350	3.6267	vw	8	3.7
294	57	114	1.2113	v	8	30.73
295	57	113	1.3162	v	8	27.75
296	58	59	1.3925	v	8	28.58
297	58	63	1.3964	v	8	28.6
298	58	64	1.5017	v	8	27.06
299	59	60	1.3865	v	8	28.72
300	60	61	1.3994	v	8	28.71
301	60	65	1.4953	v	8	27.54
302	61	62	1.3922	v	8	28.81
303	61	197	4.1481	vw	8	2.7
304	62	63	1.3889	v	8	27.8
305	62	66	1.5019	v	8	25.9
306	64	115	1.2201	v	8	30.75
307	64	116	1.3067	v	8	28.57
308	65	117	1.2151	v	8	31.05
309	65	118	1.3168	v	8	27.97
310	65	329	3.8722	vw	8	3.55
311	66	119	1.2130	v	8	30.52
312	66	120	1.3291	v	8	26.53
313	67	103	1.3381	v	8	27.84
314	67	68	1.3747	v	8	27.75
315	67	226	3.4525	vw	8	3.12
316	68	69	1.3901	v	8	27.59
317	68	249	3.4293	vw	8	2.11
318	68	323	3.5783	vw	8	3.33
319	69	70	1.3911	v	8	27.96
320	69	72	1.4976	v	8	20.56
321	69	249	3.6148	vw	8	1.66
322	69	189	3.7161	vw	8	1.54
323	70	71	1.3780	v	8	27.79
324	70	247	3.3939	vw	8	2.93
325	70	222	3.7667	vw	8	1.79
326	71	103	1.3360	v	8	27.88
327	71	223	3.6456	vw	8	2.83
328	72	217	1.5374	v	8	17.55
329	73	218	1.4999	v	8	20.56
330	74	221	1.3839	v	8	27.79
331	74	75	1.3930	v	8	28.08
332	74	232	3.8855	vw	8	2.11
333	75	76	1.3829	v	8	28.21
334	75	234	4.0533	vw	8	1.98
335	76	104	1.3337	v	8	27.99
336	77	104	1.3382	v	8	27.83
337	77	221	1.3657	v	8	27.92
338	77	237	3.2268	vw	8	3.56
339	77	229	3.2343	vw	8	3.05
340	78	107	3.2819	vw	8	2.77
341	79	105	1.3353	v	8	27.84
342	79	80	1.3745	v	8	27.8
343	80	81	1.3850	v	8	27.51
344	81	82	1.3915	v	8	27.64
345	81	84	1.5048	v	8	20.52
346	82	83	1.3744	v	8	27.86
347	82	317	3.5233	vw	8	2.09
348	83	105	1.3338	v	8	27.86
349	83	119	3.5123	vw	8	1.5
350	84	85	1.5343	v	8	17.59
351	85	86	1.5018	v	8	20.48
352	86	87	1.3846	v	8	27.57
353	86	90	1.3890	v	8	27.81
354	87	88	1.3834	v	8	27.71
355	88	106	1.3341	v	8	28.1
356	89	106	1.3477	v	8	27.8
357	89	90	1.3743	v	8	28.16
358	90	345	3.8294	vw	8	3.21
359	91	107	1.3379	v	8	27.54
360	91	92	1.3741	v	8	28.03
361	92	93	1.3842	v	8	27.72
362	93	94	1.3860	v	8	27.85
363	93	96	1.5037	v	8	20.46
364	94	95	1.3784	v	8	27.54
365	94	319	3.6530	vw	8	1.84
366	95	107	1.3296	v	8	27.38
367	96	97	1.5336	v	8	17.58
368	97	98	1.5090	v	8	20.43
369	98	102	1.3848	v	8	27.47
370	98	99	1.3924	v	8	27.37
371	99	100	1.3779	v	8	27.71
372	100	108	1.3374	v	8	27.76
373	101	108	1.3335	v	8	27.57
374	101	102	1.3852	v	8	27.23
375	105	119	3.5246	vw	8	2.3
376	109	333	3.9780	vw	8	3.16
377	111	120	3.6603	vw	8	3.32
378	112	119	3.5427	vw	8	3.39
379	112	350	3.6959	vw	8	2.16
loop_						
_topol_node.id						
_topol_node.atom_label						
_topol_node.symop						
_topol_node.translation						
_topol_node.chemical_formula_sum						
1	H1	1 [0 0 0]	H			
2	H2	1 [0 0 0]	H			
3	H3	1 [0 0 0]	H			
4	H4	1 [0 0 0]	H			
5	H5	1 [0 0 0]	H			
6	H6	1 [0 0 0]	H			
7	H7	1 [0 0 0]	H			
8	H8	1 [0 0 0]	H			
9	H9	1 [0 0 0]	H			
10	H10	1 [0 0 0]	H			
11	H11	1 [0 0 0]	H			
12	H12	1 [0 0 0]	H			
13	H13	1 [0 0 0]	H			
14	H14	1 [0 0 0]	H			
15	H15	1 [0 0 0]	H			
16	H16	1 [0 0 0]	H			
17	H17	1 [0 0 0]	H			
18	H18	1 [0 0 0]	H			
19	H19	1 [0 0 0]	H			
20	H20	1 [0 0 0]	H			
21	H21	1 [0 0 0]	H			
22	H22	1 [0 0 0]	H			
23	H23	1 [0 0 0]	H			
24	H24	1 [0 0 0]	H			
25	H25	1 [0 0 0]	H			
26	H26	1 [0 0 0]	H			
27	H27	1 [0 0 0]	H			
28	H28	1 [0 0 0]	H			
29	H29	1 [0 0 0]	H			
30	H30	1 [0 0 0]	H			
31	H31	1 [0 0 0]	H			
32	H32	1 [0 0 0]	H			
33	H33	1 [0 0 0]	H			
34	H34	1 [0 0 0]	H			
35	H35	1 [0 0 0]	H			
36	H36	1 [0 0 0]	H			
37	H37	1 [0 0 0]	H			
38	H38	1 [0 0 0]	H			
39	H39	1 [0 0 0]	H			
40	H40	1 [0 0 0]	H			
41	H41	1 [0 0 0]	H			
42	H42	1 [0 0 0]	H			
43	H43	1 [0 0 0]	H			
44	H44	1 [0 0 0]	H			
45	H45	1 [0 0 0]	H			
46	H46	1 [0 0 0]	H			
47	H47	1 [0 0 0]	H			
48	H48	1 [0 0 0]	H			
49	C1	1 [0 0 0]	C			
50	C2	1 [0 0 0]	C			
51	C3	1 [0 0 0]	C			
52	C4	1 [0 0 0]	C			
53	C5	1 [0 0 0]	C			
54	C6	1 [0 0 0]	C			
55	C7	1 [0 0 0]	C			
56	C8	1 [0 0 0]	C			
57	C9	1 [0 0 0]	C			
58	C10	1 [0 0 0]	C			
59	C11	1 [0 0 0]	C			
60	C12	1 [0 0 0]	C			
61	C13	1 [0 0 0]	C			
62	C14	1 [0 0 0]	C			
63	C15	1 [0 0 0]	C			
64	C16	1 [0 0 0]	C			
65	C17	1 [0 0 0]	C			
66	C18	1 [0 0 0]	C			
67	C19	1 [0 0 0]	C			
68	C20	1 [0 0 0]	C			
69	C21	1 [0 0 0]	C			
70	C22	1 [0 0 0]	C			
71	C23	1 [0 0 0]	C			
72	C24	1 [0 0 0]	C			
73	C25	1 [0 0 0]	C			
74	C26	1 [0 0 0]	C			
75	C27	1 [0 0 0]	C			
76	C28	1 [0 0 0]	C			
77	C29	1 [0 0 0]	C			
78	C30	1 [0 0 0]	C			
79	C31	1 [0 0 0]	C			
80	C32	1 [0 0 0]	C			
81	C33	1 [0 0 0]	C			
82	C34	1 [0 0 0]	C			
83	C35	1 [0 0 0]	C			
84	C36	1 [0 0 0]	C			
85	C37	1 [0 0 0]	C			
86	C38	1 [0 0 0]	C			
87	C39	1 [0 0 0]	C			
88	C40	1 [0 0 0]	C			
89	C41	1 [0 0 0]	C			
90	C42	1 [0 0 0]	C			
91	C43	1 [0 0 0]	C			
92	C44	1 [0 0 0]	C			
93	C45	1 [0 0 0]	C			
94	C46	1 [0 0 0]	C			
95	C47	1 [0 0 0]	C			
96	C48	1 [0 0 0]	C			
97	C49	1 [0 0 0]	C			
98	C50	1 [0 0 0]	C			
99	C51	1 [0 0 0]	C			
100	C52	1 [0 0 0]	C			
101	C53	1 [0 0 0]	C			
102	C54	1 [0 0 0]	C			
103	N1	1 [0 0 0]	N			
104	N2	1 [0 0 0]	N			
105	N3	1 [0 0 0]	N			
106	N4	1 [0 0 0]	N			
107	N5	1 [0 0 0]	N			
108	N6	1 [0 0 0]	N			
109	O1	1 [0 0 0]	O			
110	O2	1 [0 0 0]	O			
111	O3	1 [0 0 0]	O			
112	O4	1 [0 0 0]	O			
113	O5	1 [0 0 0]	O			
114	O6	1 [0 0 0]	O			
115	O7	1 [0 0 0]	O			
116	O8	1 [0 0 0]	O			
117	O9	1 [0 0 0]	O			
118	O10	1 [0 0 0]	O			
119	O11	1 [0 0 0]	O			
120	O12	1 [0 0 0]	O			
121	H22	3 [-1 0 1]	H			
122	H42	3 [0 0 1]	H			
123	H33	8 [0 0 -1]	H			
124	H39	7 [0 -1 0]	H			
125	N2	7 [1 -1 0]	N			
126	H19	3 [0 0 1]	H			
127	H14	3 [-1 0 1]	H			
128	H29	2 [1 1 -1]	H			
129	H24	6 [0 0 0]	H			
130	H30	2 [1 1 -1]	H			
131	H23	6 [-1 0 0]	H			
132	H36	2 [1 1 -1]	H			
133	N5	6 [0 0 0]	N			
134	H41	3 [0 0 1]	H			
135	H21	3 [-1 0 1]	H			
136	H19	3 [0 0 1]	H			
137	H38	3 [0 0 1]	H			
138	C10	3 [-1 0 1]	C			
139	H47	5 [1 1 1]	H			
140	H48	5 [1 1 1]	H			
141	N4	2 [1 1 -1]	N			
142	H7	3 [-1 0 1]	H			
143	O8	3 [-1 0 1]	O			
144	H15	6 [-1 0 0]	H			
145	H26	8 [0 0 -1]	H			
146	H46	3 [0 0 1]	H			
147	H32	8 [0 0 -1]	H			
148	O9	3 [-1 0 1]	O			
149	H31	7 [1 -1 0]	H			
150	H27	7 [1 -1 0]	H			
151	C34	7 [1 -1 0]	C			
152	O4	3 [0 0 1]	O			
153	N1	5 [2 0 1]	N			
154	H15	8 [0 0 0]	H			
155	H16	8 [0 0 0]	H			
156	N6	6 [0 0 1]	N			
157	H34	2 [1 1 -1]	H			
158	H45	3 [0 0 1]	H			
159	N4	2 [1 1 -1]	N			
160	H36	7 [1 -1 0]	H			
161	H31	7 [1 -1 0]	H			
162	C6	3 [0 0 1]	C			
163	C1	3 [0 0 1]	C			
164	C5	3 [0 0 1]	C			
165	H24	8 [1 0 0]	H			
166	H39	5 [1 1 1]	H			
167	H40	5 [1 1 1]	H			
168	H43	3 [0 0 1]	H			
169	H19	1 [1 0 0]	H			
170	O7	5 [2 0 1]	O			
171	H13	5 [2 0 1]	H			
172	O4	7 [1 -1 0]	O			
173	H28	3 [0 0 1]	H			
174	H28	7 [1 -1 0]	H			
175	H19	1 [1 0 0]	H			
176	H44	3 [0 0 1]	H			
177	H43	3 [0 0 1]	H			
178	O9	8 [0 0 -1]	O			
179	N6	3 [0 0 1]	N			
180	O1	6 [0 0 0]	O			
181	H31	3 [0 0 1]	H			
182	H32	3 [0 0 1]	H			
183	H47	3 [0 0 1]	H			
184	O1	6 [0 0 0]	O			
185	H23	4 [2 -1 0]	H			
186	H43	3 [0 0 1]	H			
187	C51	3 [0 0 1]	C			
188	H45	3 [0 0 1]	H			
189	C50	3 [0 0 1]	C			
190	H35	2 [1 1 -1]	H			
191	H24	1 [1 0 0]	H			
192	O9	8 [0 0 -1]	O			
193	H21	1 [-1 0 0]	H			
194	O3	3 [-1 0 1]	O			
195	H25	3 [-1 0 1]	H			
196	O6	6 [-1 0 0]	O			
197	O2	3 [0 0 1]	O			
198	H22	5 [2 1 1]	H			
199	H39	5 [1 1 1]	H			
200	N2	5 [2 1 1]	N			
201	H42	5 [1 1 1]	H			
202	O1	7 [1 0 0]	O			
203	H40	1 [1 0 0]	H			
204	C1	3 [0 0 1]	C			
205	C1	3 [-1 0 1]	C			
206	C10	3 [-1 0 1]	C			
207	C11	3 [-1 0 1]	C			
208	C12	3 [-1 0 1]	C			
209	C13	3 [-1 0 1]	C			
210	C14	3 [-1 0 1]	C			
211	C15	3 [-1 0 1]	C			
212	C16	3 [-1 0 1]	C			
213	C16	7 [1 0 0]	C			
214	C19	3 [-1 0 1]	C			
215	C2	3 [-1 0 1]	C			
216	C23	3 [-1 0 1]	C			
217	C25	1 [1 0 0]	C			
218	C26	1 [-1 0 0]	C			
219	C28	2 [1 1 0]	C			
220	C3	3 [-1 0 1]	C			
221	C30	1 [1 0 0]	C			
222	C31	3 [0 0 1]	C			
223	C32	3 [0 0 1]	C			
224	C33	5 [1 1 1]	C			
225	C34	7 [1 -1 0]	C			
226	C35	3 [0 0 1]	C			
227	C35	5 [1 1 1]	C			
228	C38	2 [1 1 -1]	C			
229	C39	2 [1 1 -1]	C			
230	C42	2 [0 1 -1]	C			
231	C43	5 [1 1 1]	C			
232	C44	1 [1 0 0]	C			
233	C44	5 [1 1 1]	C			
234	C45	1 [1 0 0]	C			
235	C45	5 [1 1 1]	C			
236	C46	5 [1 1 1]	C			
237	C47	1 [1 0 0]	C			
238	C47	5 [1 1 1]	C			
239	C5	2 [1 1 0]	C			
240	C5	3 [0 0 1]	C			
241	C5	3 [-1 0 1]	C			
242	C50	3 [0 0 1]	C			
243	C50	6 [0 0 1]	C			
244	C51	3 [0 0 1]	C			
245	C51	6 [0 0 1]	C			
246	C52	6 [0 0 1]	C			
247	C53	3 [0 0 1]	C			
248	C53	6 [0 0 1]	C			
249	C54	3 [0 0 1]	C			
250	C54	6 [0 0 1]	C			
251	C6	3 [0 0 1]	C			
252	C6	3 [-1 0 1]	C			
253	C9	2 [1 1 0]	C			
254	C9	6 [-1 0 0]	C			
255	H13	5 [2 0 1]	H			
256	H14	3 [-1 0 1]	H			
257	H15	6 [-1 0 0]	H			
258	H15	8 [0 0 0]	H			
259	H16	8 [0 0 0]	H			
260	H19	1 [1 0 0]	H			
261	H19	3 [0 0 1]	H			
262	H21	1 [-1 0 0]	H			
263	H21	3 [-1 0 1]	H			
264	H22	3 [-1 0 1]	H			
265	H22	5 [2 1 1]	H			
266	H23	4 [2 -1 0]	H			
267	H23	6 [-1 0 0]	H			
268	H24	1 [1 0 0]	H			
269	H24	6 [0 0 0]	H			
270	H24	8 [1 0 0]	H			
271	H25	3 [-1 0 1]	H			
272	H26	8 [0 0 -1]	H			
273	H27	7 [1 -1 0]	H			
274	H28	3 [0 0 1]	H			
275	H28	7 [1 -1 0]	H			
276	H29	2 [1 1 -1]	H			
277	H30	2 [1 1 -1]	H			
278	H31	2 [0 1 -1]	H			
279	H31	2 [1 1 -1]	H			
280	H31	3 [0 0 1]	H			
281	H31	7 [1 -1 0]	H			
282	H32	2 [1 1 -1]	H			
283	H32	3 [0 0 1]	H			
284	H32	8 [0 0 -1]	H			
285	H33	2 [1 1 -1]	H			
286	H33	8 [0 0 -1]	H			
287	H34	2 [1 1 -1]	H			
288	H35	2 [1 1 -1]	H			
289	H36	2 [1 1 -1]	H			
290	H36	7 [1 -1 0]	H			
291	H37	3 [0 0 1]	H			
292	H37	5 [1 1 1]	H			
293	H38	3 [0 0 1]	H			
294	H39	5 [1 1 1]	H			
295	H39	7 [0 -1 0]	H			
296	H40	1 [1 0 0]	H			
297	H40	5 [1 1 1]	H			
298	H41	3 [0 0 1]	H			
299	H41	6 [0 0 1]	H			
300	H42	3 [0 0 1]	H			
301	H42	5 [1 1 1]	H			
302	H42	6 [0 0 1]	H			
303	H43	3 [0 0 1]	H			
304	H44	3 [0 0 1]	H			
305	H44	5 [1 1 1]	H			
306	H45	3 [0 0 1]	H			
307	H45	4 [1 0 1]	H			
308	H46	3 [0 0 1]	H			
309	H46	4 [1 0 1]	H			
310	H46	6 [0 0 1]	H			
311	H47	3 [0 0 1]	H			
312	H47	5 [1 1 1]	H			
313	H47	6 [0 0 1]	H			
314	H48	5 [1 1 1]	H			
315	H48	6 [0 0 1]	H			
316	H7	3 [-1 0 1]	H			
317	N1	3 [-1 0 1]	N			
318	N1	5 [2 0 1]	N			
319	N2	1 [-1 0 0]	N			
320	N2	2 [1 1 0]	N			
321	N2	5 [2 1 1]	N			
322	N2	7 [1 -1 0]	N			
323	N3	3 [0 0 1]	N			
324	N4	2 [1 1 -1]	N			
325	N5	5 [1 1 1]	N			
326	N5	6 [0 0 0]	N			
327	N6	3 [0 0 1]	N			
328	N6	6 [0 0 1]	N			
329	O1	3 [0 0 1]	O			
330	O1	6 [0 0 0]	O			
331	O1	7 [1 0 0]	O			
332	O1	8 [0 0 0]	O			
333	O10	3 [-1 0 1]	O			
334	O10	5 [1 1 1]	O			
335	O11	2 [1 1 0]	O			
336	O11	5 [1 1 1]	O			
337	O12	3 [-1 0 1]	O			
338	O2	3 [0 0 1]	O			
339	O2	3 [-1 0 1]	O			
340	O3	3 [-1 0 1]	O			
341	O4	2 [1 1 0]	O			
342	O4	3 [0 0 1]	O			
343	O4	5 [1 1 1]	O			
344	O4	7 [1 -1 0]	O			
345	O5	2 [1 1 0]	O			
346	O5	5 [1 1 1]	O			
347	O6	3 [-1 0 1]	O			
348	O6	6 [-1 0 0]	O			
349	O6	8 [0 0 0]	O			
350	O7	3 [-1 0 1]	O			
351	O7	5 [2 0 1]	O			
352	O7	7 [1 0 0]	O			
353	O8	3 [-1 0 1]	O			
354	O8	7 [1 0 0]	O			
355	O9	3 [-1 0 1]	O			
356	O9	6 [-1 0 1]	O			
357	O9	7 [1 0 0]	O			
358	O9	8 [0 0 -1]	O			
#End of data_25-TOPOS_SAYMUB01_C18.03H16.02N2O4.02/Z=1818-foldH-bond

