data_23-TOPOS_QOZDOY_(C16H12N2O4ZN1)N,N(C4H8)/Z=4
_database_code_ICSD                 QOZDOY
_audit_creation_date                2020-11-17
_audit_creation_method              ToposPro
_chemical_formula_structural        '(C16 H12 N2 O4 ZN1)N, N(C4 H8) /Z=4'
_chemical_name_systematic
;
CATENA-(BIS(MU-2--3-(4-PYRIDYL)PROPENOATO-O)-ZINC(II) TRANS-2-BUTENE 
SOLVATE)
;
_chemical_formula_sum               'C16 H12 N2 O4 Zn1'
_citation_journal_abbrev            CHEM.COMMUN.
_citation_year                      2001
_citation_page_first                1806
_citation_special_details
;
 "CCDC: CCDC 156501  
;
loop_
_publ_author_name
'Jing ZHANG'
'Wenbin LIN'
'Zhen-Feng CHEN'
'Ren-Gen XIONG'
'Abrahams B.F.'
'Hoong-Kun FUN'
_cell_length_a                      12.471
_cell_length_b                      13.804
_cell_length_c                      12.005
_cell_angle_alpha                   90
_cell_angle_beta                    90
_cell_angle_gamma                   90
_cell_volume                        2066.657
_cell_formula_units_Z               4
_symmetry_space_group_name_H-M      'P n n a'
_symmetry_Int_Tables_number         52
_refine_ls_R_factor_all             0.0447
loop_
_symmetry_equiv_pos_site_id
_symmetry_equiv_pos_as_xyz
1 x,y,z
2 1/2-x,-y,z
3 x,1/2-y,1/2-z
4 1/2-x,1/2+y,1/2-z
5 -x,-y,-z
6 1/2+x,y,-z
7 -x,1/2+y,1/2+z
8 1/2+x,1/2-y,1/2+z
loop_
_atom_site_label
_atom_site_type_symbol
_atom_site_symmetry_multiplicity
_atom_site_fract_x
_atom_site_fract_y
_atom_site_fract_z
_atom_site_occupancy
H1 H 8 0.38620 0.81850 0.57100 1.0000
H2 H 8 0.28410 0.71080 0.66770 1.0000
H3 H 8 0.37700 0.49930 0.47840 1.0000
H4 H 8 0.48010 0.60240 0.37460 1.0000
H5 H 8 0.56630 0.75780 0.34700 1.0000
H6 H 8 0.48060 0.91370 0.45590 1.0000
C1 C 8 0.38710 0.75340 0.55110 1.0000
C2 C 8 0.32640 0.68810 0.60950 1.0000
C3 C 8 0.38030 0.56420 0.49880 1.0000
C4 C 8 0.44260 0.62620 0.43570 1.0000
C5 C 8 0.44940 0.72300 0.46290 1.0000
C6 C 8 0.52060 0.78730 0.39790 1.0000
C7 C 8 0.52550 0.88250 0.40540 1.0000
C8 C 8 0.59980 0.94260 0.33660 1.0000
N1 N 8 0.32510 0.59320 0.58680 1.0000
O1 O 8 0.60150 0.03050 0.34920 1.0000
O2 O 8 0.65570 0.90130 0.26280 1.0000
Zn1 Zn 4 0.75000 0.00000 0.19654 1.0000
loop_
_topol_link.node_label_1
_topol_link.node_label_2
_topol_link.distance
_topol_link.site_symmetry_symop_1
_topol_link.site_symmetry_translation_1_x
_topol_link.site_symmetry_translation_1_y
_topol_link.site_symmetry_translation_1_z
_topol_link.site_symmetry_symop_2
_topol_link.site_symmetry_translation_2_x
_topol_link.site_symmetry_translation_2_y
_topol_link.site_symmetry_translation_2_z
_topol_link.type
_topol_link.multiplicity
_topol_link.voronoi_solidangle
H1 C1 0.9299 1 0 0 0 1 0 0 0 v 8 35.11
H1 H6 2.2410 1 0 0 0 1 0 0 0 vw 8 16.27
H1 O1 2.2991 1 0 0 0 5 1 1 1 vw 8 17.95
H1 O2 3.6811 1 0 0 0 6 -1 0 1 vw 8 2.35
H2 C2 0.9299 1 0 0 0 1 0 0 0 v 8 34.74
H2 H2 2.2530 1 0 0 0 3 0 1 1 vw 4 18.14
H2 O2 2.5024 1 0 0 0 8 -1 1 0 vw 8 12.44
H2 H5 2.7982 1 0 0 0 6 -1 0 1 vw 8 11.93
H2 O2 3.1899 1 0 0 0 6 -1 0 1 vw 8 3.51
H2 O1 3.6024 1 0 0 0 7 1 0 0 vw 8 2.06
H3 C3 0.9297 1 0 0 0 1 0 0 0 v 8 33.70
H3 H4 2.8742 1 0 0 0 5 1 1 1 vw 8 8.64
H3 N1 3.1107 1 0 0 0 2 0 1 0 vw 8 7.16
H3 H3 3.1115 1 0 0 0 5 1 1 1 vw 4 2.11
H3 C3 3.1629 1 0 0 0 5 1 1 1 vw 8 2.54
H3 H3 3.1677 1 0 0 0 2 0 1 0 vw 4 3.86
H4 C4 0.9299 1 0 0 0 1 0 0 0 v 8 34.18
H4 H5 2.4222 1 0 0 0 1 0 0 0 vw 8 11.71
H4 O2 2.7421 1 0 0 0 3 0 1 0 vw 8 9.65
H4 C8 3.0071 1 0 0 0 3 0 1 0 vw 8 4.51
H5 C6 0.9295 1 0 0 0 1 0 0 0 v 8 34.87
H5 H5 2.3389 1 0 0 0 3 0 1 0 vw 4 15.59
H5 O2 2.4877 1 0 0 0 1 0 0 0 vw 8 9.72
H5 O2 2.7935 1 0 0 0 3 0 1 0 vw 8 6.46
H6 C7 0.9309 1 0 0 0 1 0 0 0 v 8 34.70
H6 H6 2.6518 1 0 0 0 5 1 2 1 vw 4 10.96
H6 O1 2.6676 1 0 0 0 5 1 1 1 vw 8 9.53
C1 C2 1.3701 1 0 0 0 1 0 0 0 v 8 28.79
C1 C5 1.3787 1 0 0 0 1 0 0 0 v 8 28.37
C2 N1 1.3381 1 0 0 0 1 0 0 0 v 8 28.42
C3 N1 1.3230 1 0 0 0 1 0 0 0 v 8 28.23
C3 C4 1.3820 1 0 0 0 1 0 0 0 v 8 27.50
C4 C5 1.3782 1 0 0 0 1 0 0 0 v 8 28.25
C5 C6 1.4782 1 0 0 0 1 0 0 0 v 8 26.99
C6 C7 1.3186 1 0 0 0 1 0 0 0 v 8 27.21
C7 C8 1.4930 1 0 0 0 1 0 0 0 v 8 26.28
C8 O1 1.2229 1 0 0 0 1 0 1 0 v 8 31.10
C8 O2 1.2633 1 0 0 0 1 0 0 0 v 8 30.00
N1 Zn1 2.0659 1 0 0 0 7 1 0 0 v 8 18.97
O1 Zn1 2.6393 1 0 0 0 1 0 0 0 vw 8 8.36
O2 Zn1 1.9677 1 0 0 0 1 0 1 0 v 8 19.78
#End of data_23-TOPOS_QOZDOY_(C16H12N2O4ZN1)N,N(C4H8)/Z=4

