data_25-TOPOS_SAYMUB01_C18.03H16.02N2O4.02/Z=1818-foldH-bond
_database_code_TOPOS                SAYMUB01
_audit_creation_date                2020-11-17
_audit_creation_method              ToposPro
_chemical_formula_structural        'C18.03 H16.02 N2 O4.02/Z=18  18-fold H-bond'
_chemical_name_systematic
;
bis(Benzene-1,3,5-tricarboxylic acid) tris(1,2-bis(4-pyridyl)ethane).
 
;
_chemical_formula_sum               'C9 H8 N1 O2'
_citation_journal_abbrev            'CRYST.GROWTH DES.'
_citation_year                      2005
_citation_journal_volume            5
_citation_page_first                2046
_citation_special_details
;
Details: orthorhombic polymorph. 
;
loop_
_publ_author_name
'Shattock T.R.'
'Vishweshwar P.'
'Zhenqiang WANG'
'Zaworotko M.J.'
_cell_length_a                      19.27
_cell_length_b                      19.906
_cell_length_c                      25.249
_cell_angle_alpha                   90
_cell_angle_beta                    90
_cell_angle_gamma                   90
_cell_volume                        9685.23
_cell_formula_units_Z               48
_symmetry_space_group_name_H-M      'P b c a'
_symmetry_Int_Tables_number         61
_refine_ls_R_factor_all             0.0557
loop_
_symmetry_equiv_pos_site_id
_symmetry_equiv_pos_as_xyz
1 x,y,z
2 1/2-x,-y,1/2+z
3 1/2+x,1/2-y,-z
4 -x,1/2+y,1/2-z
5 -x,-y,-z
6 1/2+x,y,1/2-z
7 1/2-x,1/2+y,z
8 x,1/2-y,1/2+z
loop_
_atom_site_label
_atom_site_type_symbol
_atom_site_symmetry_multiplicity
_atom_site_fract_x
_atom_site_fract_y
_atom_site_fract_z
_atom_site_occupancy
H1 H 8 0.53660 0.04930 0.41667 1.0000
H2 H 8 0.62980 0.34130 0.52060 1.0000
H3 H 8 0.65510 0.38040 0.20930 1.0000
H4 H 8 0.57660 0.21180 0.44130 1.0000
H5 H 8 0.64090 0.36540 0.34780 1.0000
H6 H 8 0.57850 0.18990 0.28180 1.0000
H7 H 8 0.98650 0.05450 0.63660 1.0000
H8 H 8 0.82360 0.40930 0.73430 1.0000
H9 H 8 0.80470 0.31010 0.43110 1.0000
H10 H 8 0.91980 0.21680 0.67550 1.0000
H11 H 8 0.81870 0.36970 0.60250 1.0000
H12 H 8 0.88050 0.20730 0.51800 1.0000
H13 H 8 0.98480 0.00750 0.44610 1.0000
H14 H 8 0.95920 0.11990 0.45730 1.0000
H15 H 8 0.96760 0.14260 0.29820 1.0000
H16 H 8 0.99300 0.02940 0.29140 1.0000
H17 H 8 0.90740 0.22460 0.40980 1.0000
H18 H 8 0.93380 0.23730 0.35050 1.0000
H19 H 8 0.02260 0.23750 0.44210 1.0000
H20 H 8 0.05080 0.24710 0.38300 1.0000
H21 H 8 0.97850 0.33470 0.49010 1.0000
H22 H 8 0.96020 0.44970 0.49300 1.0000
H23 H 8 0.99660 0.46530 0.34050 1.0000
H24 H 8 0.01280 0.35160 0.33290 1.0000
H25 H 8 0.65050 0.31580 0.63350 1.0000
H26 H 8 0.67190 0.38810 0.70280 1.0000
H27 H 8 0.67560 0.54070 0.59750 1.0000
H28 H 8 0.65430 0.46380 0.53130 1.0000
H29 H 8 0.70460 0.56610 0.68650 1.0000
H30 H 8 0.73390 0.50610 0.72200 1.0000
H31 H 8 0.59300 0.55320 0.72270 1.0000
H32 H 8 0.61670 0.48710 0.75410 1.0000
H33 H 8 0.66340 0.49910 0.84130 1.0000
H34 H 8 0.69750 0.56590 0.91150 1.0000
H35 H 8 0.68720 0.72760 0.82220 1.0000
H36 H 8 0.65540 0.66480 0.74960 1.0000
H37 H 8 0.19530 0.30320 0.36620 1.0000
H38 H 8 0.20930 0.31310 0.45650 1.0000
H39 H 8 0.15840 0.50920 0.44360 1.0000
H40 H 8 0.14570 0.49350 0.35350 1.0000
H41 H 8 0.16320 0.39230 0.53830 1.0000
H42 H 8 0.18620 0.46860 0.52880 1.0000
H43 H 8 0.28120 0.35740 0.52610 1.0000
H44 H 8 0.30360 0.43420 0.51840 1.0000
H45 H 8 0.23150 0.32320 0.61620 1.0000
H46 H 8 0.24650 0.33540 0.70640 1.0000
H47 H 8 0.34090 0.50830 0.68740 1.0000
H48 H 8 0.32920 0.50140 0.59620 1.0000
C1 C 8 0.57302 0.19017 0.36238 1.0000
C2 C 8 0.58561 0.22953 0.40700 1.0000
C3 C 8 0.61128 0.29457 0.40182 1.0000
C4 C 8 0.62411 0.32078 0.35153 1.0000
C5 C 8 0.61233 0.28146 0.30657 1.0000
C6 C 8 0.58672 0.21656 0.31237 1.0000
C7 C 8 0.54799 0.11910 0.36592 1.0000
C8 C 8 0.62593 0.33825 0.44928 1.0000
C9 C 8 0.62825 0.30535 0.25176 1.0000
C10 C 8 0.90601 0.20171 0.59637 1.0000
C11 C 8 0.90073 0.23607 0.64424 1.0000
C12 C 8 0.86803 0.29802 0.64692 1.0000
C13 C 8 0.84045 0.32689 0.60098 1.0000
C14 C 8 0.84493 0.29268 0.55301 1.0000
C15 C 8 0.87755 0.23052 0.55086 1.0000
C16 C 8 0.94109 0.13450 0.59281 1.0000
C17 C 8 0.86015 0.33050 0.69998 1.0000
C18 C 8 0.81705 0.32608 0.50410 1.0000
C19 C 8 0.98134 0.03555 0.41581 1.0000
C20 C 8 0.96603 0.10243 0.42272 1.0000
C21 C 8 0.96051 0.14437 0.37890 1.0000
C22 C 8 0.97093 0.11586 0.32923 1.0000
C23 C 8 0.98610 0.04837 0.32556 1.0000
C24 C 8 0.94690 0.21801 0.38519 1.0000
C25 C 8 0.01076 0.25544 0.40667 1.0000
C26 C 8 0.99866 0.32969 0.41080 1.0000
C27 C 8 0.98237 0.36063 0.45870 1.0000
C28 C 8 0.97187 0.42933 0.46019 1.0000
C29 C 8 0.99268 0.43823 0.37137 1.0000
C30 C 8 0.00283 0.37060 0.36660 1.0000
C31 C 8 0.65607 0.36229 0.62612 1.0000
C32 C 8 0.66887 0.40513 0.66768 1.0000
C33 C 8 0.67738 0.47318 0.65827 1.0000
C34 C 8 0.67107 0.49443 0.60599 1.0000
C35 C 8 0.65825 0.44823 0.56674 1.0000
C36 C 8 0.69275 0.52205 0.70220 1.0000
C37 C 8 0.63241 0.53152 0.74114 1.0000
C38 C 8 0.65431 0.57422 0.78724 1.0000
C39 C 8 0.66797 0.54624 0.83635 1.0000
C40 C 8 0.68822 0.58638 0.87832 1.0000
C41 C 8 0.68248 0.68039 0.82608 1.0000
C42 C 8 0.66298 0.64325 0.78268 1.0000
C43 C 8 0.18787 0.34575 0.38227 1.0000
C44 C 8 0.19630 0.35118 0.43614 1.0000
C45 C 8 0.18572 0.41264 0.46048 1.0000
C46 C 8 0.16643 0.46611 0.42855 1.0000
C47 C 8 0.15902 0.45635 0.37480 1.0000
C48 C 8 0.19636 0.42145 0.51907 1.0000
C49 C 8 0.27041 0.40410 0.53663 1.0000
C50 C 8 0.27941 0.41114 0.59574 1.0000
C51 C 8 0.25455 0.36166 0.62979 1.0000
C52 C 8 0.26382 0.36938 0.68356 1.0000
C53 C 8 0.31879 0.47000 0.67262 1.0000
C54 C 8 0.31188 0.46635 0.61809 1.0000
N1 N 8 0.99148 0.00849 0.36792 1.0000
N2 N 8 0.97744 0.46819 0.41737 1.0000
N3 N 8 0.65107 0.38260 0.57586 1.0000
N4 N 8 0.69516 0.65282 0.87386 1.0000
N5 N 8 0.16968 0.39743 0.35137 1.0000
N6 N 8 0.29588 0.42223 0.70526 1.0000
O1 O 8 0.53765 0.08494 0.32692 1.0000
O2 O 8 0.54003 0.09775 0.41514 1.0000
O3 O 8 0.62351 0.30507 0.49458 1.0000
O4 O 8 0.63865 0.39764 0.44499 1.0000
O5 O 8 0.64397 0.36953 0.24814 1.0000
O6 O 8 0.62617 0.26766 0.21413 1.0000
O7 O 8 0.94697 0.10535 0.55054 1.0000
O8 O 8 0.96249 0.11151 0.63845 1.0000
O9 O 8 0.87434 0.30079 0.74060 1.0000
O10 O 8 0.83523 0.39205 0.69811 1.0000
O11 O 8 0.80622 0.38605 0.50198 1.0000
O12 O 8 0.80788 0.28361 0.46409 1.0000
loop_
_topol_link.node_label_1
_topol_link.node_label_2
_topol_link.distance
_topol_link.site_symmetry_symop_1
_topol_link.site_symmetry_translation_1_x
_topol_link.site_symmetry_translation_1_y
_topol_link.site_symmetry_translation_1_z
_topol_link.site_symmetry_symop_2
_topol_link.site_symmetry_translation_2_x
_topol_link.site_symmetry_translation_2_y
_topol_link.site_symmetry_translation_2_z
_topol_link.type
_topol_link.multiplicity
_topol_link.voronoi_solidangle
H1 O2 0.9675 1 0 0 0 1 0 0 0 v 8 33.97
H1 H22 2.7148 1 0 0 0 3 -1 0 1 vw 8 9.19
H1 H42 3.2146 1 0 0 0 3 0 0 1 vw 8 4.31
H1 H33 3.2434 1 0 0 0 8 0 0 -1 vw 8 4.60
H1 H39 3.9012 1 0 0 0 7 0 -1 0 vw 8 1.54
H1 N2 1.6372 1 0 0 0 7 1 -1 0 hb 8 24.55
H2 O3 0.9831 1 0 0 0 1 0 0 0 v 8 32.92
H2 H28 2.4984 1 0 0 0 1 0 0 0 vw 8 6.68
H2 H19 2.7595 1 0 0 0 3 0 0 1 vw 8 6.47
H2 H14 3.4228 1 0 0 0 3 -1 0 1 vw 8 5.05
H2 O11 3.5457 1 0 0 0 1 0 0 0 vw 8 2.48
H2 C18 3.6449 1 0 0 0 1 0 0 0 vw 8 2.51
H2 N3 1.6705 1 0 0 0 1 0 0 0 hb 8 24.78
H3 O5 1.0269 1 0 0 0 1 0 0 0 v 8 33.86
H3 H29 2.9622 1 0 0 0 2 1 1 -1 vw 8 5.52
H3 H24 2.9972 1 0 0 0 6 0 0 0 vw 8 6.25
H3 H30 3.1277 1 0 0 0 2 1 1 -1 vw 8 4.76
H3 H23 3.7102 1 0 0 0 6 -1 0 0 vw 8 1.86
H3 H36 3.8961 1 0 0 0 2 1 1 -1 vw 8 1.60
H3 N5 1.5939 1 0 0 0 6 0 0 0 hb 8 24.15
H4 C2 0.9512 1 0 0 0 1 0 0 0 v 8 34.34
H4 O3 2.4645 1 0 0 0 1 0 0 0 vw 8 13.37
H4 O2 2.4672 1 0 0 0 1 0 0 0 vw 8 10.89
H4 H41 2.7100 1 0 0 0 3 0 0 1 vw 8 11.92
H4 H21 2.7259 1 0 0 0 3 -1 0 1 vw 8 13.37
H4 H19 3.2816 1 0 0 0 3 0 0 1 vw 8 4.03
H4 H38 3.6665 1 0 0 0 3 0 0 1 vw 8 2.23
H4 C10 3.8308 1 0 0 0 3 -1 0 1 vw 8 2.34
H5 C4 0.9500 1 0 0 0 1 0 0 0 v 8 34.37
H5 O5 2.5184 1 0 0 0 1 0 0 0 vw 8 12.55
H5 O4 2.5369 1 0 0 0 1 0 0 0 vw 8 10.78
H5 H47 2.6896 1 0 0 0 5 1 1 1 vw 8 12.56
H5 H48 3.0597 1 0 0 0 5 1 1 1 vw 8 4.67
H5 N4 3.2472 1 0 0 0 2 1 1 -1 vw 8 6.39
H5 H7 3.3985 1 0 0 0 3 -1 0 1 vw 8 5.88
H5 O8 3.4859 1 0 0 0 3 -1 0 1 vw 8 1.55
H6 C6 0.9500 1 0 0 0 1 0 0 0 v 8 34.27
H6 O6 2.4818 1 0 0 0 1 0 0 0 vw 8 13.23
H6 O1 2.5066 1 0 0 0 1 0 0 0 vw 8 13.18
H6 H15 3.0876 1 0 0 0 6 -1 0 0 vw 8 12.18
H6 H26 3.1030 1 0 0 0 8 0 0 -1 vw 8 9.11
H6 H46 3.2898 1 0 0 0 3 0 0 1 vw 8 4.96
H6 H32 3.6668 1 0 0 0 8 0 0 -1 vw 8 1.81
H6 O9 3.9789 1 0 0 0 3 -1 0 1 vw 8 1.63
H7 O8 1.2264 1 0 0 0 1 0 0 0 v 8 30.59
H7 H31 2.6596 1 0 0 0 7 1 -1 0 vw 8 7.65
H7 H27 3.2875 1 0 0 0 7 1 -1 0 vw 8 1.95
H7 C34 3.3536 1 0 0 0 7 1 -1 0 vw 8 2.44
H7 O4 3.7078 1 0 0 0 3 0 0 1 vw 8 2.34
H7 N1 1.3286 1 0 0 0 5 2 0 1 hb 8 28.82
H8 O10 1.0015 1 0 0 0 1 0 0 0 v 8 33.52
H8 H30 2.6071 1 0 0 0 1 0 0 0 vw 8 9.67
H8 H26 3.0588 1 0 0 0 1 0 0 0 vw 8 3.87
H8 H15 3.3720 1 0 0 0 8 0 0 0 vw 8 3.35
H8 H16 3.7714 1 0 0 0 8 0 0 0 vw 8 3.17
H8 N6 1.6372 1 0 0 0 6 0 0 1 hb 8 23.40
H9 O12 0.9877 1 0 0 0 1 0 0 0 v 8 33.13
H9 H34 2.5178 1 0 0 0 2 1 1 -1 vw 8 5.84
H9 H17 2.6650 1 0 0 0 1 0 0 0 vw 8 7.85
H9 H45 3.2337 1 0 0 0 3 0 0 1 vw 8 5.23
H9 C8 3.5202 1 0 0 0 1 0 0 0 vw 8 3.86
H9 C27 3.6358 1 0 0 0 1 0 0 0 vw 8 2.54
H9 C3 3.8124 1 0 0 0 1 0 0 0 vw 8 1.65
H9 N4 1.6228 1 0 0 0 2 1 1 -1 hb 8 25.30
H10 C11 0.9514 1 0 0 0 1 0 0 0 v 8 34.47
H10 O8 2.4382 1 0 0 0 1 0 0 0 vw 8 14.73
H10 O9 2.5029 1 0 0 0 1 0 0 0 vw 8 11.80
H10 H36 2.5830 1 0 0 0 7 1 -1 0 vw 8 15.06
H10 H31 3.4766 1 0 0 0 7 1 -1 0 vw 8 1.92
H10 C6 3.4928 1 0 0 0 3 0 0 1 vw 8 4.47
H10 C1 3.6141 1 0 0 0 3 0 0 1 vw 8 2.02
H10 C5 3.7377 1 0 0 0 3 0 0 1 vw 8 3.43
H10 H24 4.5672 1 0 0 0 8 1 0 0 vw 8 1.97
H11 C13 0.9504 1 0 0 0 1 0 0 0 v 8 34.90
H11 O10 2.4753 1 0 0 0 1 0 0 0 vw 8 12.41
H11 O11 2.5701 1 0 0 0 1 0 0 0 vw 8 9.48
H11 H39 2.7131 1 0 0 0 5 1 1 1 vw 8 11.65
H11 H40 3.0200 1 0 0 0 5 1 1 1 vw 8 6.69
H11 C31 3.1935 1 0 0 0 1 0 0 0 vw 8 5.05
H11 N3 3.3095 1 0 0 0 1 0 0 0 vw 8 4.14
H11 C32 3.3973 1 0 0 0 1 0 0 0 vw 8 2.68
H12 C15 0.9514 1 0 0 0 1 0 0 0 v 8 34.17
H12 O12 2.4736 1 0 0 0 1 0 0 0 vw 8 9.80
H12 O7 2.5366 1 0 0 0 1 0 0 0 vw 8 10.39
H12 H43 2.5613 1 0 0 0 3 0 0 1 vw 8 13.14
H12 H14 2.7705 1 0 0 0 1 0 0 0 vw 8 8.51
H12 H17 2.8019 1 0 0 0 1 0 0 0 vw 8 8.05
H12 H21 3.2394 1 0 0 0 1 0 0 0 vw 8 4.02
H12 H19 3.3959 1 0 0 0 1 1 0 0 vw 8 3.32
H13 C19 0.9493 1 0 0 0 1 0 0 0 v 8 33.67
H13 O7 2.6043 1 0 0 0 5 2 0 1 vw 8 13.05
H13 H13 2.8001 1 0 0 0 5 2 0 1 vw 4 12.91
H13 O4 3.2315 1 0 0 0 7 1 -1 0 vw 8 7.09
H13 H28 3.3646 1 0 0 0 3 0 0 1 vw 8 5.45
H13 H28 3.5453 1 0 0 0 7 1 -1 0 vw 8 4.39
H14 C20 0.9490 1 0 0 0 1 0 0 0 v 8 34.10
H14 O7 2.3836 1 0 0 0 1 0 0 0 vw 8 16.93
H14 H17 2.6036 1 0 0 0 1 0 0 0 vw 8 6.84
H14 H19 2.6683 1 0 0 0 1 1 0 0 vw 8 9.72
H14 H44 3.2445 1 0 0 0 3 0 0 1 vw 8 5.78
H14 H43 3.4850 1 0 0 0 3 0 0 1 vw 8 1.56
H15 C22 0.9494 1 0 0 0 1 0 0 0 v 8 34.47
H15 H18 2.3920 1 0 0 0 1 0 0 0 vw 8 12.82
H15 O9 2.5719 1 0 0 0 8 0 0 -1 vw 8 15.19
H15 N6 3.5529 1 0 0 0 3 0 0 1 vw 8 1.73
H15 O1 3.6221 1 0 0 0 6 0 0 0 vw 8 3.17
H16 C23 0.9509 1 0 0 0 1 0 0 0 v 8 33.65
H16 H31 2.5580 1 0 0 0 3 0 0 1 vw 8 11.14
H16 H32 2.6664 1 0 0 0 3 0 0 1 vw 8 9.96
H16 H47 3.0725 1 0 0 0 3 0 0 1 vw 8 7.82
H16 O1 3.2996 1 0 0 0 6 0 0 0 vw 8 6.47
H16 H23 3.5720 1 0 0 0 4 2 -1 0 vw 8 6.05
H17 C24 0.9913 1 0 0 0 1 0 0 0 v 8 28.16
H17 O12 2.6337 1 0 0 0 1 0 0 0 vw 8 7.89
H17 H21 3.2850 1 0 0 0 1 0 0 0 vw 8 2.09
H17 H43 3.3463 1 0 0 0 3 0 0 1 vw 8 3.71
H17 C51 3.5529 1 0 0 0 3 0 0 1 vw 8 2.87
H17 H45 3.5813 1 0 0 0 3 0 0 1 vw 8 1.58
H17 C50 3.6611 1 0 0 0 3 0 0 1 vw 8 1.51
H18 C24 0.9891 1 0 0 0 1 0 0 0 v 8 28.29
H18 H35 2.5368 1 0 0 0 2 1 1 -1 vw 8 11.46
H18 H24 2.7734 1 0 0 0 1 1 0 0 vw 8 10.06
H18 O9 3.0964 1 0 0 0 8 0 0 -1 vw 8 6.15
H19 C25 0.9899 1 0 0 0 1 0 0 0 v 8 28.24
H19 H21 2.4361 1 0 0 0 1 -1 0 0 vw 8 11.62
H19 O3 2.6562 1 0 0 0 3 -1 0 1 vw 8 10.74
H20 C25 0.9900 1 0 0 0 1 0 0 0 v 8 28.18
H20 H25 2.3307 1 0 0 0 3 -1 0 1 vw 8 16.67
H20 H24 2.5423 1 0 0 0 1 0 0 0 vw 8 8.37
H20 O6 2.8795 1 0 0 0 6 -1 0 0 vw 8 8.10
H20 H37 3.0299 1 0 0 0 1 0 0 0 vw 8 4.98
H21 C27 0.9490 1 0 0 0 1 0 0 0 v 8 34.47
H21 O2 2.9897 1 0 0 0 3 0 0 1 vw 8 8.12
H21 C18 3.1359 1 0 0 0 1 0 0 0 vw 8 4.93
H21 C14 3.1381 1 0 0 0 1 0 0 0 vw 8 5.78
H21 C15 3.2309 1 0 0 0 1 0 0 0 vw 8 3.66
H22 C28 0.9494 1 0 0 0 1 0 0 0 v 8 33.89
H22 H22 2.5471 1 0 0 0 5 2 1 1 vw 4 11.49
H22 H39 2.9078 1 0 0 0 5 1 1 1 vw 8 11.48
H22 N2 3.0392 1 0 0 0 5 2 1 1 vw 8 2.50
H22 O11 3.2343 1 0 0 0 1 0 0 0 vw 8 5.53
H22 H42 3.3025 1 0 0 0 5 1 1 1 vw 8 4.86
H23 C29 0.9506 1 0 0 0 1 0 0 0 v 8 33.35
H23 O1 2.4950 1 0 0 0 7 1 0 0 vw 8 14.30
H23 H40 2.9458 1 0 0 0 1 1 0 0 vw 8 11.33
H23 H33 3.1637 1 0 0 0 2 1 1 -1 vw 8 3.02
H23 C39 3.1813 1 0 0 0 2 1 1 -1 vw 8 1.79
H23 H32 3.2286 1 0 0 0 2 1 1 -1 vw 8 3.74
H23 C38 3.2991 1 0 0 0 2 1 1 -1 vw 8 3.12
H23 H31 3.4588 1 0 0 0 2 1 1 -1 vw 8 3.69
H24 C30 0.9508 1 0 0 0 1 0 0 0 v 8 33.85
H24 O6 2.9958 1 0 0 0 6 -1 0 0 vw 8 7.33
H24 N5 3.1920 1 0 0 0 1 0 0 0 vw 8 2.94
H24 C9 3.2197 1 0 0 0 6 -1 0 0 vw 8 3.98
H24 C42 3.6183 1 0 0 0 2 0 1 -1 vw 8 3.51
H24 H31 3.9357 1 0 0 0 2 0 1 -1 vw 8 3.57
H25 C31 0.9501 1 0 0 0 1 0 0 0 v 8 33.93
H25 H37 2.5212 1 0 0 0 3 0 0 1 vw 8 14.65
H25 O6 2.6692 1 0 0 0 8 0 0 0 vw 8 10.38
H26 C32 0.9511 1 0 0 0 1 0 0 0 v 8 33.99
H26 H32 2.5871 1 0 0 0 1 0 0 0 vw 8 12.01
H26 H30 2.6795 1 0 0 0 1 0 0 0 vw 8 5.66
H26 H46 2.9023 1 0 0 0 6 0 0 1 vw 8 11.35
H26 O10 3.1506 1 0 0 0 1 0 0 0 vw 8 3.93
H26 O6 3.2360 1 0 0 0 8 0 0 0 vw 8 4.91
H27 C34 0.9497 1 0 0 0 1 0 0 0 v 8 33.94
H27 H29 2.3702 1 0 0 0 1 0 0 0 vw 8 13.26
H27 C16 2.9252 1 0 0 0 7 1 0 0 vw 8 6.21
H27 O7 2.9395 1 0 0 0 7 1 0 0 vw 8 6.94
H27 H44 2.9956 1 0 0 0 5 1 1 1 vw 8 7.05
H27 C46 3.1173 1 0 0 0 5 1 1 1 vw 8 4.22
H27 O8 3.1838 1 0 0 0 7 1 0 0 vw 8 2.53
H27 C45 3.1855 1 0 0 0 5 1 1 1 vw 8 3.55
H27 C47 3.2632 1 0 0 0 5 1 1 1 vw 8 2.27
H27 C44 3.3833 1 0 0 0 5 1 1 1 vw 8 3.70
H27 C43 3.5060 1 0 0 0 5 1 1 1 vw 8 2.18
H28 C35 0.9500 1 0 0 0 1 0 0 0 v 8 33.76
H28 H44 2.5210 1 0 0 0 5 1 1 1 vw 8 14.81
H28 O4 2.5641 1 0 0 0 1 0 0 0 vw 8 12.54
H28 H48 3.3083 1 0 0 0 5 1 1 1 vw 8 1.79
H28 O11 3.3932 1 0 0 0 1 0 0 0 vw 8 4.95
H28 O7 3.4617 1 0 0 0 7 1 0 0 vw 8 3.24
H28 H39 3.7037 1 0 0 0 5 1 1 1 vw 8 1.52
H29 C36 0.9890 1 0 0 0 1 0 0 0 v 8 28.18
H29 H36 2.7014 1 0 0 0 1 0 0 0 vw 8 10.77
H29 N5 2.7038 1 0 0 0 5 1 1 1 vw 8 8.45
H30 C36 0.9897 1 0 0 0 1 0 0 0 v 8 28.11
H30 N6 2.7544 1 0 0 0 6 0 0 1 vw 8 7.24
H30 H40 3.0028 1 0 0 0 5 1 1 1 vw 8 6.81
H30 H47 3.0800 1 0 0 0 6 0 0 1 vw 8 6.38
H30 H33 3.3073 1 0 0 0 1 0 0 0 vw 8 1.50
H31 C37 0.9898 1 0 0 0 1 0 0 0 v 8 28.24
H31 H36 2.6158 1 0 0 0 1 0 0 0 vw 8 8.18
H31 O8 2.6487 1 0 0 0 7 1 0 0 vw 8 10.61
H32 C37 0.9902 1 0 0 0 1 0 0 0 v 8 28.35
H32 H33 2.3905 1 0 0 0 1 0 0 0 vw 8 12.00
H32 O1 2.7852 1 0 0 0 8 0 0 0 vw 8 10.61
H33 C39 0.9507 1 0 0 0 1 0 0 0 v 8 33.68
H33 O1 2.9669 1 0 0 0 8 0 0 0 vw 8 6.89
H33 C53 3.0701 1 0 0 0 6 0 0 1 vw 8 3.78
H33 C54 3.1085 1 0 0 0 6 0 0 1 vw 8 3.18
H33 N6 3.2001 1 0 0 0 6 0 0 1 vw 8 3.15
H33 C50 3.2543 1 0 0 0 6 0 0 1 vw 8 2.88
H33 C52 3.2873 1 0 0 0 6 0 0 1 vw 8 4.08
H33 C51 3.3321 1 0 0 0 6 0 0 1 vw 8 3.47
H33 H42 3.3644 1 0 0 0 6 0 0 1 vw 8 2.58
H33 N2 3.3880 1 0 0 0 2 1 1 0 vw 8 1.70
H33 H41 3.7096 1 0 0 0 6 0 0 1 vw 8 1.55
H34 C40 0.9487 1 0 0 0 1 0 0 0 v 8 33.84
H34 H42 2.4639 1 0 0 0 6 0 0 1 vw 8 15.09
H34 O11 2.4777 1 0 0 0 2 1 1 0 vw 8 13.29
H34 H48 2.8508 1 0 0 0 6 0 0 1 vw 8 8.49
H34 O4 3.3483 1 0 0 0 2 1 1 0 vw 8 4.53
H34 N2 3.4419 1 0 0 0 2 1 1 0 vw 8 2.73
H34 C28 3.4889 1 0 0 0 2 1 1 0 vw 8 3.10
H35 C41 0.9492 1 0 0 0 1 0 0 0 v 8 33.56
H35 H46 2.5997 1 0 0 0 4 1 0 1 vw 8 12.68
H35 O9 2.7882 1 0 0 0 7 1 0 0 vw 8 8.59
H35 H45 2.9146 1 0 0 0 4 1 0 1 vw 8 7.91
H35 C5 3.8873 1 0 0 0 2 1 1 0 vw 8 1.67
H35 C9 4.0300 1 0 0 0 2 1 1 0 vw 8 1.74
H36 C42 0.9502 1 0 0 0 1 0 0 0 v 8 34.32
H36 O9 2.7763 1 0 0 0 7 1 0 0 vw 8 10.19
H36 H37 4.1511 1 0 0 0 5 1 1 1 vw 8 3.03
H37 C43 0.9500 1 0 0 0 1 0 0 0 v 8 33.90
H37 O6 2.5276 1 0 0 0 6 -1 0 0 vw 8 12.49
H37 C13 3.9008 1 0 0 0 3 -1 0 1 vw 8 2.27
H37 C12 3.9049 1 0 0 0 3 -1 0 1 vw 8 3.69
H37 C11 4.0437 1 0 0 0 3 -1 0 1 vw 8 2.29
H38 C44 0.9495 1 0 0 0 1 0 0 0 v 8 34.49
H38 H43 2.4053 1 0 0 0 1 0 0 0 vw 8 13.56
H38 H41 2.7460 1 0 0 0 1 0 0 0 vw 8 5.80
H38 O3 3.1292 1 0 0 0 3 -1 0 1 vw 8 10.04
H38 C15 3.3616 1 0 0 0 3 -1 0 1 vw 8 3.99
H38 C14 3.3649 1 0 0 0 3 -1 0 1 vw 8 5.18
H38 O12 3.3667 1 0 0 0 3 -1 0 1 vw 8 4.30
H39 C46 0.9508 1 0 0 0 1 0 0 0 v 8 34.33
H39 H42 2.3596 1 0 0 0 1 0 0 0 vw 8 12.15
H39 O11 2.5886 1 0 0 0 5 1 1 1 vw 8 12.12
H39 N2 3.6421 1 0 0 0 1 -1 0 0 vw 8 2.33
H39 C35 3.6427 1 0 0 0 5 1 1 1 vw 8 1.62
H40 C47 0.9497 1 0 0 0 1 0 0 0 v 8 33.51
H40 O10 2.6502 1 0 0 0 5 1 1 1 vw 8 12.84
H40 C33 3.4859 1 0 0 0 5 1 1 1 vw 8 2.30
H41 C48 0.9903 1 0 0 0 1 0 0 0 v 8 28.15
H41 O2 2.6561 1 0 0 0 3 -1 0 1 vw 8 10.29
H41 H45 2.7373 1 0 0 0 1 0 0 0 vw 8 8.67
H42 C48 0.9897 1 0 0 0 1 0 0 0 v 8 28.24
H42 O11 2.9995 1 0 0 0 5 1 1 1 vw 8 5.35
H43 C49 0.9890 1 0 0 0 1 0 0 0 v 8 28.23
H43 H45 2.5605 1 0 0 0 1 0 0 0 vw 8 8.74
H43 O12 2.8644 1 0 0 0 3 -1 0 1 vw 8 8.36
H44 C49 0.9899 1 0 0 0 1 0 0 0 v 8 28.28
H44 H48 2.4272 1 0 0 0 1 0 0 0 vw 8 11.71
H44 O7 3.3589 1 0 0 0 3 -1 0 1 vw 8 4.49
H45 C51 0.9493 1 0 0 0 1 0 0 0 v 8 34.06
H45 C2 3.0575 1 0 0 0 3 -1 0 1 vw 8 5.38
H45 C1 3.1128 1 0 0 0 3 -1 0 1 vw 8 5.63
H45 O12 3.2858 1 0 0 0 3 -1 0 1 vw 8 3.59
H45 C3 3.3271 1 0 0 0 3 -1 0 1 vw 8 4.14
H46 C52 0.9495 1 0 0 0 1 0 0 0 v 8 33.73
H46 O9 2.8869 1 0 0 0 6 -1 0 1 vw 8 7.07
H46 C6 3.2824 1 0 0 0 3 -1 0 1 vw 8 3.58
H46 C5 3.4933 1 0 0 0 3 -1 0 1 vw 8 2.99
H46 O6 3.6894 1 0 0 0 3 -1 0 1 vw 8 3.92
H47 C53 0.9498 1 0 0 0 1 0 0 0 v 8 33.58
H47 O5 2.9408 1 0 0 0 5 1 1 1 vw 8 10.75
H47 C23 3.0345 1 0 0 0 3 -1 0 1 vw 8 3.68
H47 N1 3.2377 1 0 0 0 3 -1 0 1 vw 8 3.31
H48 C54 0.9506 1 0 0 0 1 0 0 0 v 8 33.73
H48 O4 2.3461 1 0 0 0 5 1 1 1 vw 8 16.66
H48 C19 3.0378 1 0 0 0 3 -1 0 1 vw 8 5.06
H48 N1 3.2617 1 0 0 0 3 -1 0 1 vw 8 3.13
C1 C6 1.3929 1 0 0 0 1 0 0 0 v 8 27.80
C1 C2 1.3936 1 0 0 0 1 0 0 0 v 8 27.60
C1 C7 1.4974 1 0 0 0 1 0 0 0 v 8 27.17
C1 C11 3.6341 1 0 0 0 3 -1 0 1 vw 8 3.30
C2 C3 1.3921 1 0 0 0 1 0 0 0 v 8 27.96
C2 C10 3.7227 1 0 0 0 3 -1 0 1 vw 8 2.87
C3 C4 1.3949 1 0 0 0 1 0 0 0 v 8 28.06
C3 C8 1.5072 1 0 0 0 1 0 0 0 v 8 26.69
C3 O8 3.5707 1 0 0 0 3 -1 0 1 vw 8 2.05
C3 C16 3.5732 1 0 0 0 3 -1 0 1 vw 8 3.54
C4 C5 1.3974 1 0 0 0 1 0 0 0 v 8 28.24
C4 O8 3.4030 1 0 0 0 3 -1 0 1 vw 8 4.44
C5 C6 1.3907 1 0 0 0 1 0 0 0 v 8 27.91
C5 C9 1.4951 1 0 0 0 1 0 0 0 v 8 27.49
C7 O1 1.2132 1 0 0 0 1 0 0 0 v 8 31.10
C7 O2 1.3223 1 0 0 0 1 0 0 0 v 8 27.66
C7 C12 3.8539 1 0 0 0 3 -1 0 1 vw 8 4.15
C8 O4 1.2122 1 0 0 0 1 0 0 0 v 8 30.33
C8 O3 1.3216 1 0 0 0 1 0 0 0 v 8 26.19
C8 O7 3.6267 1 0 0 0 3 -1 0 1 vw 8 3.70
C9 O6 1.2113 1 0 0 0 1 0 0 0 v 8 30.73
C9 O5 1.3162 1 0 0 0 1 0 0 0 v 8 27.75
C10 C11 1.3925 1 0 0 0 1 0 0 0 v 8 28.58
C10 C15 1.3964 1 0 0 0 1 0 0 0 v 8 28.60
C10 C16 1.5017 1 0 0 0 1 0 0 0 v 8 27.06
C11 C12 1.3865 1 0 0 0 1 0 0 0 v 8 28.72
C12 C13 1.3994 1 0 0 0 1 0 0 0 v 8 28.71
C12 C17 1.4953 1 0 0 0 1 0 0 0 v 8 27.54
C13 C14 1.3922 1 0 0 0 1 0 0 0 v 8 28.81
C13 O2 4.1481 1 0 0 0 3 0 0 1 vw 8 2.70
C14 C15 1.3889 1 0 0 0 1 0 0 0 v 8 27.80
C14 C18 1.5019 1 0 0 0 1 0 0 0 v 8 25.90
C16 O7 1.2201 1 0 0 0 1 0 0 0 v 8 30.75
C16 O8 1.3067 1 0 0 0 1 0 0 0 v 8 28.57
C17 O9 1.2151 1 0 0 0 1 0 0 0 v 8 31.05
C17 O10 1.3168 1 0 0 0 1 0 0 0 v 8 27.97
C17 O1 3.8722 1 0 0 0 3 0 0 1 vw 8 3.55
C18 O11 1.2130 1 0 0 0 1 0 0 0 v 8 30.52
C18 O12 1.3291 1 0 0 0 1 0 0 0 v 8 26.53
C19 N1 1.3381 1 0 0 0 1 0 0 0 v 8 27.84
C19 C20 1.3747 1 0 0 0 1 0 0 0 v 8 27.75
C19 C35 3.4525 1 0 0 0 3 0 0 1 vw 8 3.12
C20 C21 1.3901 1 0 0 0 1 0 0 0 v 8 27.59
C20 C54 3.4293 1 0 0 0 3 0 0 1 vw 8 2.11
C20 N3 3.5783 1 0 0 0 3 0 0 1 vw 8 3.33
C21 C22 1.3911 1 0 0 0 1 0 0 0 v 8 27.96
C21 C24 1.4976 1 0 0 0 1 0 0 0 v 8 20.56
C21 C54 3.6148 1 0 0 0 3 0 0 1 vw 8 1.66
C21 C50 3.7161 1 0 0 0 3 0 0 1 vw 8 1.54
C22 C23 1.3780 1 0 0 0 1 0 0 0 v 8 27.79
C22 C53 3.3939 1 0 0 0 3 0 0 1 vw 8 2.93
C22 C31 3.7667 1 0 0 0 3 0 0 1 vw 8 1.79
C23 N1 1.3360 1 0 0 0 1 0 0 0 v 8 27.88
C23 C32 3.6456 1 0 0 0 3 0 0 1 vw 8 2.83
C24 C25 1.5374 1 0 0 0 1 1 0 0 v 8 17.55
C25 C26 1.4999 1 0 0 0 1 -1 0 0 v 8 20.56
C26 C30 1.3839 1 0 0 0 1 1 0 0 v 8 27.79
C26 C27 1.3930 1 0 0 0 1 0 0 0 v 8 28.08
C26 C44 3.8855 1 0 0 0 1 1 0 0 vw 8 2.11
C27 C28 1.3829 1 0 0 0 1 0 0 0 v 8 28.21
C27 C45 4.0533 1 0 0 0 1 1 0 0 vw 8 1.98
C28 N2 1.3337 1 0 0 0 1 0 0 0 v 8 27.99
C29 N2 1.3382 1 0 0 0 1 0 0 0 v 8 27.83
C29 C30 1.3657 1 0 0 0 1 1 0 0 v 8 27.92
C29 C47 3.2268 1 0 0 0 1 1 0 0 vw 8 3.56
C29 C39 3.2343 1 0 0 0 2 1 1 -1 vw 8 3.05
C30 N5 3.2819 1 0 0 0 1 0 0 0 vw 8 2.77
C31 N3 1.3353 1 0 0 0 1 0 0 0 v 8 27.84
C31 C32 1.3745 1 0 0 0 1 0 0 0 v 8 27.80
C32 C33 1.3850 1 0 0 0 1 0 0 0 v 8 27.51
C33 C34 1.3915 1 0 0 0 1 0 0 0 v 8 27.64
C33 C36 1.5048 1 0 0 0 1 0 0 0 v 8 20.52
C34 C35 1.3744 1 0 0 0 1 0 0 0 v 8 27.86
C34 N1 3.5233 1 0 0 0 3 -1 0 1 vw 8 2.09
C35 N3 1.3338 1 0 0 0 1 0 0 0 v 8 27.86
C35 O11 3.5123 1 0 0 0 1 0 0 0 vw 8 1.50
C36 C37 1.5343 1 0 0 0 1 0 0 0 v 8 17.59
C37 C38 1.5018 1 0 0 0 1 0 0 0 v 8 20.48
C38 C39 1.3846 1 0 0 0 1 0 0 0 v 8 27.57
C38 C42 1.3890 1 0 0 0 1 0 0 0 v 8 27.81
C39 C40 1.3834 1 0 0 0 1 0 0 0 v 8 27.71
C40 N4 1.3341 1 0 0 0 1 0 0 0 v 8 28.10
C41 N4 1.3477 1 0 0 0 1 0 0 0 v 8 27.80
C41 C42 1.3743 1 0 0 0 1 0 0 0 v 8 28.16
C42 O5 3.8294 1 0 0 0 2 1 1 0 vw 8 3.21
C43 N5 1.3379 1 0 0 0 1 0 0 0 v 8 27.54
C43 C44 1.3741 1 0 0 0 1 0 0 0 v 8 28.03
C44 C45 1.3842 1 0 0 0 1 0 0 0 v 8 27.72
C45 C46 1.3860 1 0 0 0 1 0 0 0 v 8 27.85
C45 C48 1.5037 1 0 0 0 1 0 0 0 v 8 20.46
C46 C47 1.3784 1 0 0 0 1 0 0 0 v 8 27.54
C46 N2 3.6530 1 0 0 0 1 -1 0 0 vw 8 1.84
C47 N5 1.3296 1 0 0 0 1 0 0 0 v 8 27.38
C48 C49 1.5336 1 0 0 0 1 0 0 0 v 8 17.58
C49 C50 1.5090 1 0 0 0 1 0 0 0 v 8 20.43
C50 C54 1.3848 1 0 0 0 1 0 0 0 v 8 27.47
C50 C51 1.3924 1 0 0 0 1 0 0 0 v 8 27.37
C51 C52 1.3779 1 0 0 0 1 0 0 0 v 8 27.71
C52 N6 1.3374 1 0 0 0 1 0 0 0 v 8 27.76
C53 N6 1.3335 1 0 0 0 1 0 0 0 v 8 27.57
C53 C54 1.3852 1 0 0 0 1 0 0 0 v 8 27.23
N3 O11 3.5246 1 0 0 0 1 0 0 0 vw 8 2.30
O1 O10 3.9780 1 0 0 0 3 -1 0 1 vw 8 3.16
O3 O12 3.6603 1 0 0 0 1 0 0 0 vw 8 3.32
O4 O11 3.5427 1 0 0 0 1 0 0 0 vw 8 3.39
O4 O7 3.6959 1 0 0 0 3 -1 0 1 vw 8 2.16
#End of data_25-TOPOS_SAYMUB01_C18.03H16.02N2O4.02/Z=1818-foldH-bond

